Minimize
 
Subject To
 c1510: - b110 + y110 >= 0
 c2110: d0 - d1 - 9.9999999e+07 g2110 <= -38109
 c2210: - 0.1059353869271225 d0 + 0.3786626596543952 d1 + b110
   - 9.9999999e+07 g2110 >= -9.998291190833959e+07
 c1411: - a111 + y111 >= 0
 c1711: - 2 d1 - 9.9999999e+07 g1111 <= -42807.0000001
 c1811: 0.5611783271962125 d1 + a111 - 9.9999999e+07 g1111
   >= -9.9974652819673851e+07
 c251: d1 + y110 + y111 <= 42807
Bounds
 d0 >= 726
 13335 <= d1 <= 21403
 b110 free
 y110 free
 g2110 free
 a111 free
 y111 free
 g1111 free
Generals
 g2110 g1111
End
